26820.47
107 119 5 60 21 68 20 11 74 126 85 8 122 27 52 118 137 140 29 93 23 16 84 65 88 67 17 123 92 103 111 44 90 125 51 59 70 83 2 6 81 100 135 56 106 41 98 66 120 49 61 127 75 9 114 86 40 78 134 64 39 1 4 71 139 54 31 101 89 87 3 34 94 138 116 129 141 121 105 28 73 80 128 58 149 62 37 32 96 36 82 30 38 91 99 14 108 69 33 132 22 72 12 102 25 130 79 117 43 145 112 113 50 48 146 7 136 124 57 10 19 18 47 15 144 35 45 0 53 55 63 46 95 26 97 109 76 142 104 13 115 133 42 147 77 143 148 131 110 24